sifdecoder -A pc64.lnx.gfo -st   HUESTIS

 Problem name: HUESTIS

 Double precision version will be formed

 The objective function uses 1 nonlinear group
 
 There are 2 linear equality constraints
 
 There are 5000 variables bounded only from below 
 
 
 File successfully decoded
 CUTEST: tools (double precision version) compiled successfully
 CUTEst: ipopt (double precision version) compiled successfully

******************************************************************************
This program contains Ipopt, a library for large-scale nonlinear optimization.
 Ipopt is released as open source code under the Eclipse Public License (EPL).
         For more information visit http://projects.coin-or.org/Ipopt
******************************************************************************

This is Ipopt version trunk, running with linear solver ma57.

Number of nonzeros in equality constraint Jacobian...:    10000
Number of nonzeros in inequality constraint Jacobian.:        0
Number of nonzeros in Lagrangian Hessian.............:     5000

Total number of variables............................:     5000
                     variables with only lower bounds:     5000
                variables with lower and upper bounds:        0
                     variables with only upper bounds:        0
Total number of equality constraints.................:        2
Total number of inequality constraints...............:        0
        inequality constraints with only lower bounds:        0
   inequality constraints with lower and upper bounds:        0
        inequality constraints with only upper bounds:        0

iter    objective    inf_pr   inf_du lg(mu)  ||d||  lg(rg) alpha_du alpha_pr  ls
   0  5.0000000e+03 1.83e+03 1.00e+00  -1.0 0.00e+00    -  0.00e+00 0.00e+00   0
   1  3.2856026e+04 1.83e+03 1.63e+00  -1.0 9.39e+03    -  1.05e-04 2.87e-04h  1
   2  6.1410628e+04 1.83e+03 1.00e+00  -1.0 9.72e+03    -  3.77e-04 1.64e-04h  1
   3  1.8621276e+05 1.83e+03 1.11e+00  -1.0 9.54e+03    -  5.53e-04 4.45e-04h  1
   4  5.4163582e+05 1.83e+03 3.87e+00  -1.0 9.51e+03    -  1.02e-03 7.33e-04h  1
   5  1.5713156e+06 1.83e+03 9.49e+00  -1.0 9.50e+03    -  1.81e-03 1.24e-03h  1
   6  4.5125809e+06 1.83e+03 2.06e+01  -1.0 9.49e+03    -  3.19e-03 2.09e-03h  1
   7  1.2908531e+07 1.82e+03 4.17e+01  -1.0 9.48e+03    -  5.61e-03 3.54e-03h  1
   8  3.6938111e+07 1.81e+03 8.05e+01  -1.0 9.44e+03    -  9.86e-03 6.01e-03h  1
   9  1.0625039e+08 1.79e+03 1.51e+02  -1.0 9.39e+03    -  1.74e-02 1.03e-02h  1
iter    objective    inf_pr   inf_du lg(mu)  ||d||  lg(rg) alpha_du alpha_pr  ls
  10  3.0593551e+08 1.76e+03 2.79e+02  -1.0 9.29e+03    -  3.09e-02 1.77e-02h  1
  11  8.9044793e+08 1.70e+03 5.05e+02  -1.0 9.13e+03    -  5.54e-02 3.09e-02h  1
  12  2.6054758e+09 1.61e+03 8.98e+02  -1.0 8.84e+03    -  1.01e-01 5.47e-02h  1
  13  7.4987941e+09 1.45e+03 1.56e+03  -1.0 8.36e+03    -  1.90e-01 9.71e-02h  1
  14  2.9236667e+10 1.08e+03 1.91e+03  -1.0 7.55e+03    -  3.68e-01 2.55e-01h  1
  15  1.7412245e+11 4.79e-12 7.35e+02  -1.0 5.62e+03    -  8.23e-01 1.00e+00h  1
  16  1.7412245e+11 2.49e-12 5.24e-03  -1.7 1.33e-01    -  1.00e+00 9.80e-01f  1
  17  1.7412245e+11 3.13e-12 1.53e-09  -3.8 8.83e-02    -  1.00e+00 1.00e+00f  1
  18  1.7412245e+11 1.60e-12 1.54e-09  -3.8 4.32e-02    -  1.00e+00 1.00e+00f  1
  19  1.7412245e+11 5.79e-12 3.59e-11  -5.7 2.20e-02    -  1.00e+00 1.00e+00f  1
iter    objective    inf_pr   inf_du lg(mu)  ||d||  lg(rg) alpha_du alpha_pr  ls
  20  1.7412245e+11 5.72e-13 3.82e-11  -5.7 1.10e-02    -  1.00e+00 1.00e+00f  1
  21  1.7412245e+11 6.54e-13 3.73e-11  -5.7 5.47e-03    -  1.00e+00 1.00e+00f  1
  22  1.7412245e+11 8.18e-13 4.64e-11  -5.7 2.69e-03    -  1.00e+00 1.00e+00h  1
  23  1.7412245e+11 1.96e-12 2.32e-11  -8.6 1.42e-03    -  1.00e+00 1.00e+00f  1
  24  1.7412245e+11 2.67e-13 2.64e-11  -8.6 6.96e-04    -  1.00e+00 1.00e+00h  1
  25  1.7412245e+11 5.14e-14 2.18e-11  -8.6 3.22e-04    -  1.00e+00 1.00e+00h  1
  26  1.7412245e+11 1.93e-13 2.18e-11  -8.6 1.20e-04    -  1.00e+00 1.00e+00f  1
  27  1.7412245e+11 4.14e-13 2.00e-11  -9.0 2.45e-05    -  1.00e+00 1.00e+00f  1

Number of Iterations....: 27

                                   (scaled)                 (unscaled)
Objective...............:   1.7412244909868002e+11    1.7412244909868002e+11
Dual infeasibility......:   2.0008883439004421e-11    2.0008883439004421e-11
Constraint violation....:   4.1412835691798231e-13    4.1412835691798231e-13
Complementarity.........:   2.1109242169550507e-09    2.1109242169550507e-09
Overall NLP error.......:   7.7552473496789911e-10    2.1109242169550507e-09


Number of objective function evaluations             = 28
Number of objective gradient evaluations             = 28
Number of equality constraint evaluations            = 28
Number of inequality constraint evaluations          = 0
Number of equality constraint Jacobian evaluations   = 28
Number of inequality constraint Jacobian evaluations = 0
Number of Lagrangian Hessian evaluations             = 27
Total CPU secs in IPOPT (w/o function evaluations)   =      0.306
Total CPU secs in NLP function evaluations           =      0.042

EXIT: Optimal Solution Found.

************************ CUTEst statistics ************************


 Package used            :  IPOPT
 Problem                 :  HUESTIS   
 # variables             =            5000
 # constraints           =               2
 # objective functions   =        0.5700000E+02
 # objective gradients   =        0.2900000E+02
 # objective Hessians    =        0.2800000E+02
 # Hessian-vector prdct  =        0.0000000E+00
 # constraints functions =        0.5800000E+02
 # constraints gradients =        0.3000000E+02
 # constraints Hessians  =        0.2800000E+02
 Exit code               =               0
 Final f                 =        1.7412244909868002D+11
 Bounds feasibility      =        9.9999115684847100D-09
 Set up time             =            0.27 seconds
 Solve time              =            0.73 seconds


******************************************************************

